; benchmark generated from python API
(set-info :status unknown)
(declare-datatypes ((IntState 0)) (((Mk1 (val1 Int)) (Mk2 (val2 Int)))))
 (declare-fun c_main_~j~6 () Int)
(declare-fun c_main_~k~6 () Int)
(declare-fun c_main_~i~6 () Int)
(assert
 (let (($x13 (exists ((v_nnf_50_st IntState) (val!83 Int) )(let ((?x56 (val2 v_nnf_50_st)))
 (let (($x123 (<= ?x56 3)))
 (let (($x8 (and (<= (+ ?x56 4) c_main_~k~6) (<= c_main_~j~6 (+ (* 2 ?x56) 2)) $x123)))
 (let (($x52 (not (= v_nnf_50_st (Mk1 val!83)))))
 (and $x52 $x8))))))
 ))
 (let (($x50 (<= c_main_~i~6 3)))
 (let (($x27 (<= c_main_~j~6 (+ (* 2 c_main_~i~6) 1))))
 (let (($x112 (exists ((v_nnf_50 Int) )(let (($x165 (<= v_nnf_50 3)))
 (and (<= (+ v_nnf_50 4) c_main_~k~6) (<= c_main_~j~6 (+ (* 2 v_nnf_50) 2)) $x165)))
 ))
 (let ((?x124 (* 2 c_main_~i~6)))
 (let (($x169 (<= c_main_~j~6 ?x124)))
 (and (and $x169 $x50 $x27 $x112) (not (and $x27 $x50 $x13))))))))))
(check-sat)
